; benchmark generated from python API
(set-info :status unknown)
(declare-datatypes ((RealState 0)) (((RMk1 (rval1 Real)) (RMk2 (rval2 Real)))))
 (assert
 (forall ((|v17:0| Real) )(forall ((|v16:1| Real) )(forall ((|v15:2| Real) )(forall ((|v14:3| Real) )(forall ((|v13:4| Real) )(forall ((|v12:5| Real) )(exists ((|v11:6_st| RealState) (val!8076 Real) )(exists ((|v10:7_st| RealState) (val!8077 Real) )(exists ((|v9:8_st| RealState) (val!8078 Real) )(exists ((|v8:9_st| RealState) (val!8079 Real) )(exists ((|v7:10_st| RealState) (val!8080 Real) )(exists ((|v6:11_st| RealState) (val!8081 Real) )(forall ((|v5:12| Real) )(forall ((|v4:13| Real) )(forall ((|v3:14| Real) )(forall ((|v2:15| Real) )(forall ((|v1:16| Real) )(forall ((|v0:17| Real) )(let ((?x1034 (- 5.0)))
 (let ((?x766 (* 7.0 |v5:12|)))
 (let ((?x246 (+ (+ (* 6.0 (rval2 |v10:7_st|)) (* 10.0 |v13:4|)) (* (- 11.0) (rval2 |v7:10_st|)))))
 (let ((?x966 (- 10.0)))
 (let ((?x1862 (* ?x966 |v2:15|)))
 (let ((?x1266 (+ (+ (* (- 14.0) |v1:16|) (* 4.0 (rval2 |v10:7_st|))) (* 6.0 (rval2 |v8:9_st|)))))
 (let ((?x2799 (- 1.0)))
 (let ((?x1778 (* ?x2799 |v4:13|)))
 (let ((?x1298 (+ (+ (+ (* 2.0 (rval2 |v6:11_st|)) (* 10.0 (rval2 |v8:9_st|))) ?x1778) (* (- 7.0) (rval2 |v6:11_st|)))))
 (let ((?x1811 (* 6.0 |v17:0|)))
 (let ((?x1981 (rval2 |v11:6_st|)))
 (let ((?x2782 (* 15.0 ?x1981)))
 (let (($x645 (<= (+ (+ (+ (* 9.0 |v4:13|) (* (- 15.0) (rval2 |v6:11_st|))) ?x2782) ?x1811) 5.0)))
 (let (($x3200 (or (or $x645 (<= ?x1298 3.0)) (or (<= (+ ?x1266 ?x1862) 15.0) (<= (+ ?x246 ?x766) ?x1034)))))
 (let ((?x1884 (- 9.0)))
 (let ((?x927 (* 3.0 |v4:13|)))
 (let ((?x34 (+ (+ (+ (* (- 11.0) |v0:17|) (* (- 7.0) (rval2 |v8:9_st|))) ?x927) (* ?x2799 |v16:1|))))
 (let ((?x2294 (- 14.0)))
 (let ((?x478 (* 20.0 |v5:12|)))
 (let ((?x2517 (+ (+ (* ?x2799 (rval2 |v6:11_st|)) (* (- 18.0) |v15:2|)) (* (- 8.0) (rval2 |v9:8_st|)))))
 (let ((?x1949 (- 8.0)))
 (let ((?x1863 (* 17.0 |v12:5|)))
 (let ((?x122 (* 11.0 |v0:17|)))
 (let ((?x2700 (+ (+ (* (- 20.0) |v4:13|) (* 0.0 |v4:13|)) ?x122)))
 (let ((?x1423 (rval2 |v10:7_st|)))
 (let ((?x935 (* 18.0 ?x1423)))
 (let ((?x348 (+ (+ (* 6.0 |v5:12|) (* 16.0 |v4:13|)) (* (- 7.0) |v2:15|))))
 (let (($x415 (and (and (<= (+ ?x348 ?x935) 5.0) (<= (+ ?x2700 ?x1863) ?x1949)) (or (<= (+ ?x2517 ?x478) ?x2294) (<= ?x34 ?x1884)))))
 (let ((?x2817 (* 3.0 ?x1981)))
 (let ((?x1750 (+ (+ (+ (* ?x966 (rval2 |v6:11_st|)) (* (- 12.0) (rval2 |v7:10_st|))) ?x2817) (* (- 17.0) |v16:1|))))
 (let ((?x441 (- 17.0)))
 (let ((?x2831 (+ (+ (+ (* 10.0 |v0:17|) (* 9.0 |v2:15|)) (* (- 13.0) |v13:4|)) (* ?x1949 |v15:2|))))
 (let ((?x155 (rval2 |v9:8_st|)))
 (let ((?x2425 (- 12.0)))
 (let ((?x1860 (* ?x2425 ?x155)))
 (let (($x2940 (<= (+ (+ (+ |v0:17| (* ?x2294 |v1:16|)) (* (- 18.0) |v15:2|)) ?x1860) 19.0)))
 (let ((?x2764 (+ (+ (* ?x441 |v15:2|) (* ?x2425 (rval2 |v6:11_st|))) (* (- 3.0) (rval2 |v8:9_st|)))))
 (let ((?x930 (* ?x2294 |v3:14|)))
 (let ((?x2509 (+ (+ (+ (* 20.0 (rval2 |v7:10_st|)) (* 0.0 |v3:14|)) (* 5.0 |v0:17|)) ?x930)))
 (let (($x1573 (or (or (<= ?x2509 16.0) (<= (+ ?x2764 (* (- 13.0) |v16:1|)) 13.0)) (or $x2940 (<= ?x2831 ?x441)))))
 (let ((?x344 (+ (+ (+ (* (- 16.0) |v4:13|) (* ?x2425 |v0:17|)) (* 8.0 |v15:2|)) (* (- 13.0) (rval2 |v7:10_st|)))))
 (let ((?x1645 (- 16.0)))
 (let ((?x2267 (+ (+ (+ (* 17.0 |v4:13|) (* 16.0 |v2:15|)) (* 7.0 (rval2 |v6:11_st|))) (* (- 6.0) (rval2 |v7:10_st|)))))
 (let ((?x1286 (* 5.0 |v16:1|)))
 (let ((?x257 (+ (+ (+ (* (- 13.0) |v2:15|) (* 15.0 ?x155)) (* ?x966 (rval2 |v8:9_st|))) ?x1286)))
 (let ((?x913 (- 7.0)))
 (let ((?x2738 (- 3.0)))
 (let ((?x2535 (* ?x2738 |v5:12|)))
 (let ((?x2587 (+ (+ (+ (* 5.0 (rval2 |v7:10_st|)) (* 4.0 |v2:15|)) (* 15.0 |v3:14|)) ?x2535)))
 (let (($x2877 (or (and (<= ?x2587 ?x913) (<= ?x257 10.0)) (or (<= ?x2267 ?x1645) (<= ?x344 20.0)))))
 (let ((?x2030 (* ?x1645 |v2:15|)))
 (let ((?x2347 (+ (+ (+ (* (- 19.0) |v16:1|) (* ?x966 ?x155)) (* (- 6.0) |v0:17|)) ?x2030)))
 (let ((?x2114 (rval2 |v6:11_st|)))
 (let ((?x1477 (* 2.0 ?x2114)))
 (let ((?x675 (+ (+ (+ (* 14.0 (rval2 |v8:9_st|)) (* (- 20.0) |v12:5|)) (* ?x1034 |v2:15|)) ?x1477)))
 (let ((?x2549 (+ (+ (+ (* 15.0 |v15:2|) (* 9.0 |v2:15|)) (* ?x1949 ?x1981)) (* (- 19.0) ?x1423))))
 (let (($x1182 (<= (+ (+ (+ (* 18.0 |v14:3|) (* ?x2738 ?x1981)) ?x1860) (* (- 6.0) ?x1423)) ?x966)))
 (let (($x1973 (or (and $x1182 (<= ?x2549 1.0)) (and (<= ?x675 ?x2738) (<= ?x2347 6.0)))))
 (let (($x1440 (<= (+ (+ (+ |v13:4| (* (- 4.0) ?x1423)) (* ?x1884 |v2:15|)) (* 10.0 |v12:5|)) 10.0)))
 (let ((?x1593 (+ (+ (+ (* (- 6.0) |v3:14|) (* 16.0 |v14:3|)) (* 19.0 (rval2 |v7:10_st|))) |v1:16|)))
 (let (($x2938 (<= (+ (+ (+ ?x1778 (* ?x2294 |v1:16|)) (* ?x1645 ?x1981)) (* 8.0 ?x155)) 11.0)))
 (let ((?x1795 (- 2.0)))
 (let ((?x5 (+ (+ (+ (* 12.0 ?x155) (* 6.0 ?x2114)) (* 11.0 |v5:12|)) (* 5.0 ?x155))))
 (let ((?x253 (* 7.0 |v2:15|)))
 (let ((?x2835 (* 7.0 |v0:17|)))
 (let ((?x495 (+ (+ (+ (* (- 20.0) |v2:15|) (* (- 11.0) (rval2 |v8:9_st|))) ?x2835) ?x253)))
 (let ((?x1618 (* ?x1795 |v3:14|)))
 (let (($x1164 (<= (+ (+ (+ (* 13.0 |v14:3|) (* ?x2799 |v17:0|)) (* 16.0 |v14:3|)) ?x1618) 15.0)))
 (let ((?x1800 (+ (+ (+ (* (- 19.0) |v17:0|) (* 13.0 |v1:16|)) (* (- 19.0) |v15:2|)) (* ?x2294 |v15:2|))))
 (let ((?x459 (* 11.0 |v13:4|)))
 (let (($x35 (<= (+ (+ (+ (* 18.0 ?x2114) (* 9.0 |v12:5|)) (* 14.0 |v1:16|)) ?x459) 1.0)))
 (let (($x389 (or (and (or $x35 (<= ?x1800 7.0)) (and $x1164 (<= ?x495 13.0))) (or (and (<= ?x5 ?x1795) $x2938) (and (<= ?x1593 ?x1645) $x1440)))))
 (let (($x2287 (and (and $x389 (and $x1973 $x2877)) (and (and $x1573 (<= ?x1750 2.0)) (and $x415 $x3200)))))
 (let ((?x2122 (- 11.0)))
 (let ((?x707 (* ?x2122 |v5:12|)))
 (let ((?x1431 (+ (+ (* (- 20.0) |v0:17|) (* ?x1645 (rval2 |v7:10_st|))) (* ?x2425 (rval2 |v8:9_st|)))))
 (let (($x785 (not (= |v6:11_st| (RMk1 val!8081)))))
 (let (($x1017 (not (= |v7:10_st| (RMk1 val!8080)))))
 (let (($x2912 (not (= |v8:9_st| (RMk1 val!8079)))))
 (let (($x2702 (not (= |v9:8_st| (RMk1 val!8078)))))
 (let (($x1978 (not (= |v10:7_st| (RMk1 val!8077)))))
 (let (($x891 (not (= |v11:6_st| (RMk1 val!8076)))))
 (and $x891 $x1978 $x2702 $x2912 $x1017 $x785 (or (<= (+ ?x1431 ?x707) 6.0) $x2287)))))))))))))))))))))))))))))))))))))))))))))))))))))))))))))))))))))))))))))))))))))
 )
 )
 )
 )
 )
 )
 )
 )
 )
 )
 )
 )
 )
 )
 )
 )
 )
 )
(check-sat)
